BAYES
100
2 2 2 2 2 2 2 2 2 2 2 2 2 2 2 2 2 2 2 2 2 2 2 2 2 2 2 2 2 2 2 2 2 2 2 2 2 2 2 2 2 2 2 2 2 2 2 2 2 2 2 2 2 2 2 2 2 2 2 2 2 2 2 2 2 2 2 2 2 2 2 2 2 2 2 2 2 2 2 2 2 2 2 2 2 2 2 2 2 2 2 2 2 2 2 2 2 2 2 2
100
1 0
2 0 1
2 1 2
2 2 3
2 3 4
2 4 5
2 5 6
2 6 7
2 7 8
2 8 9
2 0 10
3 1 10 11
3 2 11 12
3 3 12 13
3 4 13 14
3 5 14 15
3 6 15 16
3 7 16 17
3 8 17 18
3 9 18 19
2 10 20
3 11 20 21
3 12 21 22
3 13 22 23
3 14 23 24
3 15 24 25
3 16 25 26
3 17 26 27
3 18 27 28
3 19 28 29
2 20 30
3 21 30 31
3 22 31 32
3 23 32 33
3 24 33 34
3 25 34 35
3 26 35 36
3 27 36 37
3 28 37 38
3 29 38 39
2 30 40
3 31 40 41
3 32 41 42
3 33 42 43
3 34 43 44
3 35 44 45
3 36 45 46
3 37 46 47
3 38 47 48
3 39 48 49
2 40 50
3 41 50 51
3 42 51 52
3 43 52 53
3 44 53 54
3 45 54 55
3 46 55 56
3 47 56 57
3 48 57 58
3 49 58 59
2 50 60
3 51 60 61
3 52 61 62
3 53 62 63
3 54 63 64
3 55 64 65
3 56 65 66
3 57 66 67
3 58 67 68
3 59 68 69
2 60 70
3 61 70 71
3 62 71 72
3 63 72 73
3 64 73 74
3 65 74 75
3 66 75 76
3 67 76 77
3 68 77 78
3 69 78 79
2 70 80
3 71 80 81
3 72 81 82
3 73 82 83
3 74 83 84
3 75 84 85
3 76 85 86
3 77 86 87
3 78 87 88
3 79 88 89
2 80 90
3 81 90 91
3 82 91 92
3 83 92 93
3 84 93 94
3 85 94 95
3 86 95 96
3 87 96 97
3 88 97 98
3 89 98 99

2
0.594038 0.405962
4
0.947665 0.0523349 0.679975 0.320025
4
1.0 0.0 0.0 1.0
4
0.00189419 0.998106 0.715672 0.284328
4
0.0 1.0 1.0 0.0
4
1.0 0.0 0.0 1.0
4
0.0 1.0 1.0 0.0
4
0.0 1.0 1.0 0.0
4
0.0 1.0 1.0 0.0
4
1.0 0.0 0.0 1.0
4
0.689838 0.310162 0.55708 0.44292
8
0.0279273 0.972073 0.00359662 0.996403 0.955829 0.0441705 0.534797 0.465203
8
0.0 1.0 0.0 1.0 1.0 0.0 0.0 1.0
8
0.970479 0.0295211 0.576665 0.423335 0.798387 0.201613 0.972373 0.0276269
8
0.0 1.0 1.0 0.0 1.0 0.0 1.0 0.0
8
0.690314 0.309686 0.288264 0.711736 0.496255 0.503745 0.83286 0.16714
8
0.0 1.0 1.0 0.0 0.0 1.0 0.0 1.0
8
0.10982 0.89018 0.405643 0.594357 0.802554 0.197446 0.0656493 0.934351
8
0.853668 0.146332 0.539589 0.460411 0.0692747 0.930725 0.721022 0.278978
8
0.878085 0.121915 0.6915 0.3085 0.537859 0.462141 0.676472 0.323528
4
0.830196 0.169804 0.935928 0.0640719
8
1.0 0.0 0.0 1.0 0.0 1.0 1.0 0.0
8
0.0 1.0 1.0 0.0 1.0 0.0 1.0 0.0
8
0.658884 0.341116 0.0555916 0.944408 0.907946 0.092054 0.0645266 0.935473
8
0.973595 0.0264046 0.00496659 0.995033 0.711814 0.288186 0.513185 0.486815
8
1.0 0.0 1.0 0.0 1.0 0.0 0.0 1.0
8
0.0 1.0 0.0 1.0 0.0 1.0 1.0 0.0
8
0.334016 0.665984 0.414023 0.585977 0.0851887 0.914811 0.515912 0.484088
8
0.67848 0.32152 0.530669 0.469331 0.159334 0.840666 0.959648 0.0403518
8
0.957461 0.0425395 0.618532 0.381468 0.842895 0.157105 0.865407 0.134593
4
0.70104 0.29896 0.839002 0.160998
8
0.412854 0.587146 0.352186 0.647814 0.762267 0.237733 0.84569 0.15431
8
0.714593 0.285407 0.970026 0.029974 0.838803 0.161197 0.343391 0.656609
8
0.681236 0.318764 0.908117 0.0918833 0.746389 0.253611 0.0152521 0.984748
8
1.0 0.0 1.0 0.0 1.0 0.0 0.0 1.0
8
0.0 1.0 1.0 0.0 0.0 1.0 0.0 1.0
8
0.0 1.0 1.0 0.0 1.0 0.0 0.0 1.0
8
0.459321 0.540679 0.805925 0.194075 0.0471137 0.952886 0.221588 0.778412
8
0.873679 0.126321 0.936181 0.0638193 0.621641 0.378359 0.712482 0.287518
8
0.0 1.0 1.0 0.0 1.0 0.0 0.0 1.0
4
0.0 1.0 1.0 0.0
8
0.940134 0.0598657 0.383552 0.616448 0.467899 0.532101 0.00196716 0.998033
8
1.0 0.0 1.0 0.0 0.0 1.0 0.0 1.0
8
0.263054 0.736946 0.797138 0.202862 0.936204 0.0637964 0.957981 0.042019
8
1.0 0.0 1.0 0.0 0.0 1.0 1.0 0.0
8
0.0 1.0 1.0 0.0 1.0 0.0 0.0 1.0
8
0.881487 0.118513 0.521525 0.478475 0.393944 0.606056 0.391315 0.608685
8
1.0 0.0 0.0 1.0 0.0 1.0 1.0 0.0
8
1.0 0.0 0.0 1.0 1.0 0.0 1.0 0.0
8
0.861658 0.138342 0.70785 0.29215 0.666485 0.333515 0.819639 0.180361
4
0.408613 0.591387 0.824734 0.175266
8
0.0 1.0 1.0 0.0 0.0 1.0 0.0 1.0
8
1.0 0.0 1.0 0.0 0.0 1.0 1.0 0.0
8
0.67368 0.32632 0.823183 0.176817 0.213893 0.786107 0.00775837 0.992242
8
0.16116 0.83884 0.343804 0.656196 0.789525 0.210475 0.0460308 0.953969
8
0.388129 0.611871 0.956744 0.0432565 0.261233 0.738767 0.249788 0.750212
8
0.927718 0.0722821 0.069427 0.930573 0.628903 0.371097 0.336331 0.663669
8
0.0712583 0.928742 0.138688 0.861312 0.597668 0.402332 0.927841 0.0721588
8
0.892431 0.107569 0.478223 0.521777 0.169428 0.830572 0.172168 0.827832
8
0.903954 0.0960461 0.845848 0.154152 0.733274 0.266726 0.117847 0.882153
4
0.331323 0.668677 0.279007 0.720993
8
1.0 0.0 1.0 0.0 0.0 1.0 1.0 0.0
8
0.758765 0.241235 0.946375 0.0536252 0.917313 0.0826871 0.828192 0.171808
8
0.253644 0.746356 0.722353 0.277647 0.646536 0.353464 0.392332 0.607668
8
1.0 0.0 1.0 0.0 0.0 1.0 1.0 0.0
8
0.384621 0.615379 0.962691 0.0373092 0.422142 0.577858 0.230469 0.769531
8
0.539988 0.460012 0.084076 0.915924 0.0272882 0.972712 0.818995 0.181005
8
0.0 1.0 1.0 0.0 1.0 0.0 1.0 0.0
8
0.0 1.0 0.0 1.0 1.0 0.0 1.0 0.0
8
1.0 0.0 1.0 0.0 1.0 0.0 0.0 1.0
4
1.0 0.0 0.0 1.0
8
0.4989 0.5011 0.220978 0.779022 0.429679 0.570321 0.883521 0.116479
8
1.0 0.0 1.0 0.0 0.0 1.0 1.0 0.0
8
1.0 0.0 1.0 0.0 0.0 1.0 1.0 0.0
8
0.0 1.0 1.0 0.0 0.0 1.0 0.0 1.0
8
0.0 1.0 1.0 0.0 0.0 1.0 1.0 0.0
8
1.0 0.0 0.0 1.0 1.0 0.0 0.0 1.0
8
0.0 1.0 1.0 0.0 1.0 0.0 0.0 1.0
8
0.0 1.0 1.0 0.0 0.0 1.0 1.0 0.0
8
1.0 0.0 0.0 1.0 0.0 1.0 0.0 1.0
4
0.0 1.0 1.0 0.0
8
0.0698245 0.930175 0.777275 0.222725 0.949172 0.0508279 0.222664 0.777336
8
0.0 1.0 1.0 0.0 1.0 0.0 1.0 0.0
8
1.0 0.0 0.0 1.0 1.0 0.0 1.0 0.0
8
0.0 1.0 0.0 1.0 1.0 0.0 0.0 1.0
8
0.537564 0.462436 0.377924 0.622076 0.482994 0.517006 0.85704 0.14296
8
1.0 0.0 1.0 0.0 1.0 0.0 0.0 1.0
8
1.0 0.0 0.0 1.0 0.0 1.0 0.0 1.0
8
0.632348 0.367652 0.321962 0.678038 0.663528 0.336472 0.292193 0.707807
8
1.0 0.0 0.0 1.0 1.0 0.0 1.0 0.0
4
0.182824 0.817176 0.93671 0.0632896
8
1.0 0.0 0.0 1.0 1.0 0.0 1.0 0.0
8
0.0 1.0 0.0 1.0 0.0 1.0 1.0 0.0
8
1.0 0.0 0.0 1.0 1.0 0.0 1.0 0.0
8
1.0 0.0 0.0 1.0 0.0 1.0 1.0 0.0
8
0.361752 0.638248 0.739527 0.260473 0.248191 0.751809 0.938786 0.0612137
8
0.757164 0.242836 0.924559 0.0754414 0.14155 0.85845 0.693874 0.306126
8
0.0 1.0 0.0 1.0 1.0 0.0 1.0 0.0
8
0.0625101 0.93749 0.570553 0.429447 0.165711 0.834289 0.515111 0.484889
8
1.0 0.0 1.0 0.0 0.0 1.0 0.0 1.0